-1457 -1561 0
-1561 0
113 0
1457 0
-105 0
-9 0
1 0
209 0
1361 0
305 0
-1449 0
-217 0
-1353 0
-313 0
-1465 0
-1257 0
-409 0
-201 0
97 0
1249 0
417 0
79 0
87 0
95 0
17 0
1153 0
1553 0
513 0
71 0
1265 0
1057 0
609 0
63 0
401 0
-1545 0
-1369 0
-297 0
-89 0
-1145 0
0
